 &BANDS
    prefix  = 'graphene'
    ! otudir  = '/tmp/'
    filband = 'graphene.bands.dat'
    lsym = .true.,
 /
